c cksystemsgroup.github.io/unicorn
c CNF contains a total of 1100 clauses.
c CNF contains a total of 337 variables.
c CNF clauses cover 1 bad states.
c Variable name mapping (97 names):
c   2: input[bit=47]
c   5: input[bit=46]
c   8: input[bit=45]
c   11: input[bit=44]
c   14: input[bit=43]
c   17: input[bit=42]
c   20: input[bit=41]
c   23: input[bit=40]
c   26: input[bit=39]
c   29: input[bit=38]
c   32: input[bit=37]
c   35: input[bit=36]
c   38: input[bit=35]
c   41: input[bit=34]
c   44: input[bit=33]
c   47: input[bit=32]
c   50: input[bit=31]
c   53: input[bit=30]
c   56: input[bit=29]
c   59: input[bit=28]
c   62: input[bit=27]
c   65: input[bit=26]
c   68: input[bit=25]
c   71: input[bit=24]
c   74: input[bit=23]
c   77: input[bit=22]
c   80: input[bit=21]
c   83: input[bit=20]
c   86: input[bit=19]
c   89: input[bit=18]
c   92: input[bit=17]
c   95: input[bit=16]
c   98: input[bit=15]
c   101: input[bit=14]
c   104: input[bit=13]
c   107: input[bit=12]
c   110: input[bit=11]
c   113: input[bit=10]
c   116: input[bit=9]
c   119: input[bit=8]
c   122: input[bit=7]
c   125: input[bit=6]
c   128: input[bit=5]
c   131: input[bit=4]
c   134: input[bit=3]
c   137: input[bit=2]
c   140: input[bit=1]
c   143: input[bit=0]
c   193: input[bit=47]
c   195: input[bit=46]
c   197: input[bit=45]
c   199: input[bit=44]
c   201: input[bit=43]
c   203: input[bit=42]
c   205: input[bit=41]
c   207: input[bit=40]
c   209: input[bit=39]
c   211: input[bit=38]
c   213: input[bit=37]
c   215: input[bit=36]
c   217: input[bit=35]
c   219: input[bit=34]
c   221: input[bit=33]
c   223: input[bit=32]
c   225: input[bit=31]
c   227: input[bit=30]
c   229: input[bit=29]
c   231: input[bit=28]
c   233: input[bit=27]
c   235: input[bit=26]
c   237: input[bit=25]
c   239: input[bit=24]
c   241: input[bit=23]
c   243: input[bit=22]
c   245: input[bit=21]
c   247: input[bit=20]
c   249: input[bit=19]
c   251: input[bit=18]
c   253: input[bit=17]
c   255: input[bit=16]
c   257: input[bit=15]
c   259: input[bit=14]
c   261: input[bit=13]
c   263: input[bit=12]
c   265: input[bit=11]
c   267: input[bit=10]
c   269: input[bit=9]
c   271: input[bit=8]
c   273: input[bit=7]
c   275: input[bit=6]
c   277: input[bit=5]
c   279: input[bit=4]
c   281: input[bit=3]
c   283: input[bit=2]
c   285: input[bit=1]
c   287: input[bit=0]
c   337: ?
p cnf 337 1100
-1 0
-2 -3 0
2 3 0
-4 0
-5 -6 0
5 6 0
-7 0
-8 -9 0
8 9 0
-10 0
-11 -12 0
11 12 0
-13 0
-14 -15 0
14 15 0
-16 0
-17 -18 0
17 18 0
-19 0
-20 -21 0
20 21 0
-22 0
-23 -24 0
23 24 0
-25 0
-26 -27 0
26 27 0
-28 0
-29 -30 0
29 30 0
-31 0
-32 -33 0
32 33 0
-34 0
-35 -36 0
35 36 0
-37 0
-38 -39 0
38 39 0
-40 0
-41 -42 0
41 42 0
-43 0
-44 -45 0
44 45 0
-46 0
-47 -48 0
47 48 0
-49 0
-50 -51 0
50 51 0
-52 0
-53 -54 0
53 54 0
-55 0
-56 -57 0
56 57 0
-58 0
-59 -60 0
59 60 0
-61 0
-62 -63 0
62 63 0
-64 0
-65 -66 0
65 66 0
-67 0
-68 -69 0
68 69 0
-70 0
-71 -72 0
71 72 0
-73 0
-74 -75 0
74 75 0
-76 0
-77 -78 0
77 78 0
-79 0
-80 -81 0
80 81 0
-82 0
-83 -84 0
83 84 0
-85 0
-86 -87 0
86 87 0
-88 0
-89 -90 0
89 90 0
-91 0
-92 -93 0
92 93 0
-94 0
-95 -96 0
95 96 0
-97 0
-98 -99 0
98 99 0
-100 0
-101 -102 0
101 102 0
-103 0
-104 -105 0
104 105 0
-106 0
-107 -108 0
107 108 0
-109 0
-110 -111 0
110 111 0
-112 0
-113 -114 0
113 114 0
-115 0
-116 -117 0
116 117 0
-118 0
-119 -120 0
119 120 0
-121 0
-122 -123 0
122 123 0
-124 0
-125 -126 0
125 126 0
-127 0
-128 -129 0
128 129 0
-130 0
-131 -132 0
131 132 0
-133 0
-134 -135 0
134 135 0
-136 0
-137 -138 0
137 138 0
-139 0
-140 -141 0
140 141 0
-142 0
-143 -144 0
143 144 0
141 142 -145 0
141 144 -145 0
-142 -144 145 0
142 144 -145 0
-141 -144 145 0
-141 -142 145 0
138 139 -146 0
138 145 -146 0
-139 -145 146 0
139 145 -146 0
-138 -145 146 0
-138 -139 146 0
135 136 -147 0
135 146 -147 0
-136 -146 147 0
136 146 -147 0
-135 -146 147 0
-135 -136 147 0
132 133 -148 0
132 147 -148 0
-133 -147 148 0
133 147 -148 0
-132 -147 148 0
-132 -133 148 0
129 130 -149 0
129 148 -149 0
-130 -148 149 0
130 148 -149 0
-129 -148 149 0
-129 -130 149 0
126 127 -150 0
126 149 -150 0
-127 -149 150 0
127 149 -150 0
-126 -149 150 0
-126 -127 150 0
123 124 -151 0
123 150 -151 0
-124 -150 151 0
124 150 -151 0
-123 -150 151 0
-123 -124 151 0
120 121 -152 0
120 151 -152 0
-121 -151 152 0
121 151 -152 0
-120 -151 152 0
-120 -121 152 0
117 118 -153 0
117 152 -153 0
-118 -152 153 0
118 152 -153 0
-117 -152 153 0
-117 -118 153 0
114 115 -154 0
114 153 -154 0
-115 -153 154 0
115 153 -154 0
-114 -153 154 0
-114 -115 154 0
111 112 -155 0
111 154 -155 0
-112 -154 155 0
112 154 -155 0
-111 -154 155 0
-111 -112 155 0
108 109 -156 0
108 155 -156 0
-109 -155 156 0
109 155 -156 0
-108 -155 156 0
-108 -109 156 0
105 106 -157 0
105 156 -157 0
-106 -156 157 0
106 156 -157 0
-105 -156 157 0
-105 -106 157 0
102 103 -158 0
102 157 -158 0
-103 -157 158 0
103 157 -158 0
-102 -157 158 0
-102 -103 158 0
99 100 -159 0
99 158 -159 0
-100 -158 159 0
100 158 -159 0
-99 -158 159 0
-99 -100 159 0
96 97 -160 0
96 159 -160 0
-97 -159 160 0
97 159 -160 0
-96 -159 160 0
-96 -97 160 0
93 94 -161 0
93 160 -161 0
-94 -160 161 0
94 160 -161 0
-93 -160 161 0
-93 -94 161 0
90 91 -162 0
90 161 -162 0
-91 -161 162 0
91 161 -162 0
-90 -161 162 0
-90 -91 162 0
87 88 -163 0
87 162 -163 0
-88 -162 163 0
88 162 -163 0
-87 -162 163 0
-87 -88 163 0
84 85 -164 0
84 163 -164 0
-85 -163 164 0
85 163 -164 0
-84 -163 164 0
-84 -85 164 0
81 82 -165 0
81 164 -165 0
-82 -164 165 0
82 164 -165 0
-81 -164 165 0
-81 -82 165 0
78 79 -166 0
78 165 -166 0
-79 -165 166 0
79 165 -166 0
-78 -165 166 0
-78 -79 166 0
75 76 -167 0
75 166 -167 0
-76 -166 167 0
76 166 -167 0
-75 -166 167 0
-75 -76 167 0
72 73 -168 0
72 167 -168 0
-73 -167 168 0
73 167 -168 0
-72 -167 168 0
-72 -73 168 0
69 70 -169 0
69 168 -169 0
-70 -168 169 0
70 168 -169 0
-69 -168 169 0
-69 -70 169 0
66 67 -170 0
66 169 -170 0
-67 -169 170 0
67 169 -170 0
-66 -169 170 0
-66 -67 170 0
63 64 -171 0
63 170 -171 0
-64 -170 171 0
64 170 -171 0
-63 -170 171 0
-63 -64 171 0
60 61 -172 0
60 171 -172 0
-61 -171 172 0
61 171 -172 0
-60 -171 172 0
-60 -61 172 0
57 58 -173 0
57 172 -173 0
-58 -172 173 0
58 172 -173 0
-57 -172 173 0
-57 -58 173 0
54 55 -174 0
54 173 -174 0
-55 -173 174 0
55 173 -174 0
-54 -173 174 0
-54 -55 174 0
51 52 -175 0
51 174 -175 0
-52 -174 175 0
52 174 -175 0
-51 -174 175 0
-51 -52 175 0
48 49 -176 0
48 175 -176 0
-49 -175 176 0
49 175 -176 0
-48 -175 176 0
-48 -49 176 0
45 46 -177 0
45 176 -177 0
-46 -176 177 0
46 176 -177 0
-45 -176 177 0
-45 -46 177 0
42 43 -178 0
42 177 -178 0
-43 -177 178 0
43 177 -178 0
-42 -177 178 0
-42 -43 178 0
39 40 -179 0
39 178 -179 0
-40 -178 179 0
40 178 -179 0
-39 -178 179 0
-39 -40 179 0
36 37 -180 0
36 179 -180 0
-37 -179 180 0
37 179 -180 0
-36 -179 180 0
-36 -37 180 0
33 34 -181 0
33 180 -181 0
-34 -180 181 0
34 180 -181 0
-33 -180 181 0
-33 -34 181 0
30 31 -182 0
30 181 -182 0
-31 -181 182 0
31 181 -182 0
-30 -181 182 0
-30 -31 182 0
27 28 -183 0
27 182 -183 0
-28 -182 183 0
28 182 -183 0
-27 -182 183 0
-27 -28 183 0
24 25 -184 0
24 183 -184 0
-25 -183 184 0
25 183 -184 0
-24 -183 184 0
-24 -25 184 0
21 22 -185 0
21 184 -185 0
-22 -184 185 0
22 184 -185 0
-21 -184 185 0
-21 -22 185 0
18 19 -186 0
18 185 -186 0
-19 -185 186 0
19 185 -186 0
-18 -185 186 0
-18 -19 186 0
15 16 -187 0
15 186 -187 0
-16 -186 187 0
16 186 -187 0
-15 -186 187 0
-15 -16 187 0
12 13 -188 0
12 187 -188 0
-13 -187 188 0
13 187 -188 0
-12 -187 188 0
-12 -13 188 0
9 10 -189 0
9 188 -189 0
-10 -188 189 0
10 188 -189 0
-9 -188 189 0
-9 -10 189 0
6 7 -190 0
6 189 -190 0
-7 -189 190 0
7 189 -190 0
-6 -189 190 0
-6 -7 190 0
3 4 -191 0
3 190 -191 0
-4 -190 191 0
4 190 -191 0
-3 -190 191 0
-3 -4 191 0
-191 -192 0
191 192 0
3 4 190 -194 0
3 4 -190 194 0
3 -4 190 194 0
3 -4 -190 -194 0
-3 4 190 194 0
-3 4 -190 -194 0
-3 -4 190 -194 0
-3 -4 -190 194 0
6 7 189 -196 0
6 7 -189 196 0
6 -7 189 196 0
6 -7 -189 -196 0
-6 7 189 196 0
-6 7 -189 -196 0
-6 -7 189 -196 0
-6 -7 -189 196 0
9 10 188 -198 0
9 10 -188 198 0
9 -10 188 198 0
9 -10 -188 -198 0
-9 10 188 198 0
-9 10 -188 -198 0
-9 -10 188 -198 0
-9 -10 -188 198 0
12 13 187 -200 0
12 13 -187 200 0
12 -13 187 200 0
12 -13 -187 -200 0
-12 13 187 200 0
-12 13 -187 -200 0
-12 -13 187 -200 0
-12 -13 -187 200 0
15 16 186 -202 0
15 16 -186 202 0
15 -16 186 202 0
15 -16 -186 -202 0
-15 16 186 202 0
-15 16 -186 -202 0
-15 -16 186 -202 0
-15 -16 -186 202 0
18 19 185 -204 0
18 19 -185 204 0
18 -19 185 204 0
18 -19 -185 -204 0
-18 19 185 204 0
-18 19 -185 -204 0
-18 -19 185 -204 0
-18 -19 -185 204 0
21 22 184 -206 0
21 22 -184 206 0
21 -22 184 206 0
21 -22 -184 -206 0
-21 22 184 206 0
-21 22 -184 -206 0
-21 -22 184 -206 0
-21 -22 -184 206 0
24 25 183 -208 0
24 25 -183 208 0
24 -25 183 208 0
24 -25 -183 -208 0
-24 25 183 208 0
-24 25 -183 -208 0
-24 -25 183 -208 0
-24 -25 -183 208 0
27 28 182 -210 0
27 28 -182 210 0
27 -28 182 210 0
27 -28 -182 -210 0
-27 28 182 210 0
-27 28 -182 -210 0
-27 -28 182 -210 0
-27 -28 -182 210 0
30 31 181 -212 0
30 31 -181 212 0
30 -31 181 212 0
30 -31 -181 -212 0
-30 31 181 212 0
-30 31 -181 -212 0
-30 -31 181 -212 0
-30 -31 -181 212 0
33 34 180 -214 0
33 34 -180 214 0
33 -34 180 214 0
33 -34 -180 -214 0
-33 34 180 214 0
-33 34 -180 -214 0
-33 -34 180 -214 0
-33 -34 -180 214 0
36 37 179 -216 0
36 37 -179 216 0
36 -37 179 216 0
36 -37 -179 -216 0
-36 37 179 216 0
-36 37 -179 -216 0
-36 -37 179 -216 0
-36 -37 -179 216 0
39 40 178 -218 0
39 40 -178 218 0
39 -40 178 218 0
39 -40 -178 -218 0
-39 40 178 218 0
-39 40 -178 -218 0
-39 -40 178 -218 0
-39 -40 -178 218 0
42 43 177 -220 0
42 43 -177 220 0
42 -43 177 220 0
42 -43 -177 -220 0
-42 43 177 220 0
-42 43 -177 -220 0
-42 -43 177 -220 0
-42 -43 -177 220 0
45 46 176 -222 0
45 46 -176 222 0
45 -46 176 222 0
45 -46 -176 -222 0
-45 46 176 222 0
-45 46 -176 -222 0
-45 -46 176 -222 0
-45 -46 -176 222 0
48 49 175 -224 0
48 49 -175 224 0
48 -49 175 224 0
48 -49 -175 -224 0
-48 49 175 224 0
-48 49 -175 -224 0
-48 -49 175 -224 0
-48 -49 -175 224 0
51 52 174 -226 0
51 52 -174 226 0
51 -52 174 226 0
51 -52 -174 -226 0
-51 52 174 226 0
-51 52 -174 -226 0
-51 -52 174 -226 0
-51 -52 -174 226 0
54 55 173 -228 0
54 55 -173 228 0
54 -55 173 228 0
54 -55 -173 -228 0
-54 55 173 228 0
-54 55 -173 -228 0
-54 -55 173 -228 0
-54 -55 -173 228 0
57 58 172 -230 0
57 58 -172 230 0
57 -58 172 230 0
57 -58 -172 -230 0
-57 58 172 230 0
-57 58 -172 -230 0
-57 -58 172 -230 0
-57 -58 -172 230 0
60 61 171 -232 0
60 61 -171 232 0
60 -61 171 232 0
60 -61 -171 -232 0
-60 61 171 232 0
-60 61 -171 -232 0
-60 -61 171 -232 0
-60 -61 -171 232 0
63 64 170 -234 0
63 64 -170 234 0
63 -64 170 234 0
63 -64 -170 -234 0
-63 64 170 234 0
-63 64 -170 -234 0
-63 -64 170 -234 0
-63 -64 -170 234 0
66 67 169 -236 0
66 67 -169 236 0
66 -67 169 236 0
66 -67 -169 -236 0
-66 67 169 236 0
-66 67 -169 -236 0
-66 -67 169 -236 0
-66 -67 -169 236 0
69 70 168 -238 0
69 70 -168 238 0
69 -70 168 238 0
69 -70 -168 -238 0
-69 70 168 238 0
-69 70 -168 -238 0
-69 -70 168 -238 0
-69 -70 -168 238 0
72 73 167 -240 0
72 73 -167 240 0
72 -73 167 240 0
72 -73 -167 -240 0
-72 73 167 240 0
-72 73 -167 -240 0
-72 -73 167 -240 0
-72 -73 -167 240 0
75 76 166 -242 0
75 76 -166 242 0
75 -76 166 242 0
75 -76 -166 -242 0
-75 76 166 242 0
-75 76 -166 -242 0
-75 -76 166 -242 0
-75 -76 -166 242 0
78 79 165 -244 0
78 79 -165 244 0
78 -79 165 244 0
78 -79 -165 -244 0
-78 79 165 244 0
-78 79 -165 -244 0
-78 -79 165 -244 0
-78 -79 -165 244 0
81 82 164 -246 0
81 82 -164 246 0
81 -82 164 246 0
81 -82 -164 -246 0
-81 82 164 246 0
-81 82 -164 -246 0
-81 -82 164 -246 0
-81 -82 -164 246 0
84 85 163 -248 0
84 85 -163 248 0
84 -85 163 248 0
84 -85 -163 -248 0
-84 85 163 248 0
-84 85 -163 -248 0
-84 -85 163 -248 0
-84 -85 -163 248 0
87 88 162 -250 0
87 88 -162 250 0
87 -88 162 250 0
87 -88 -162 -250 0
-87 88 162 250 0
-87 88 -162 -250 0
-87 -88 162 -250 0
-87 -88 -162 250 0
90 91 161 -252 0
90 91 -161 252 0
90 -91 161 252 0
90 -91 -161 -252 0
-90 91 161 252 0
-90 91 -161 -252 0
-90 -91 161 -252 0
-90 -91 -161 252 0
93 94 160 -254 0
93 94 -160 254 0
93 -94 160 254 0
93 -94 -160 -254 0
-93 94 160 254 0
-93 94 -160 -254 0
-93 -94 160 -254 0
-93 -94 -160 254 0
96 97 159 -256 0
96 97 -159 256 0
96 -97 159 256 0
96 -97 -159 -256 0
-96 97 159 256 0
-96 97 -159 -256 0
-96 -97 159 -256 0
-96 -97 -159 256 0
99 100 158 -258 0
99 100 -158 258 0
99 -100 158 258 0
99 -100 -158 -258 0
-99 100 158 258 0
-99 100 -158 -258 0
-99 -100 158 -258 0
-99 -100 -158 258 0
102 103 157 -260 0
102 103 -157 260 0
102 -103 157 260 0
102 -103 -157 -260 0
-102 103 157 260 0
-102 103 -157 -260 0
-102 -103 157 -260 0
-102 -103 -157 260 0
105 106 156 -262 0
105 106 -156 262 0
105 -106 156 262 0
105 -106 -156 -262 0
-105 106 156 262 0
-105 106 -156 -262 0
-105 -106 156 -262 0
-105 -106 -156 262 0
108 109 155 -264 0
108 109 -155 264 0
108 -109 155 264 0
108 -109 -155 -264 0
-108 109 155 264 0
-108 109 -155 -264 0
-108 -109 155 -264 0
-108 -109 -155 264 0
111 112 154 -266 0
111 112 -154 266 0
111 -112 154 266 0
111 -112 -154 -266 0
-111 112 154 266 0
-111 112 -154 -266 0
-111 -112 154 -266 0
-111 -112 -154 266 0
114 115 153 -268 0
114 115 -153 268 0
114 -115 153 268 0
114 -115 -153 -268 0
-114 115 153 268 0
-114 115 -153 -268 0
-114 -115 153 -268 0
-114 -115 -153 268 0
117 118 152 -270 0
117 118 -152 270 0
117 -118 152 270 0
117 -118 -152 -270 0
-117 118 152 270 0
-117 118 -152 -270 0
-117 -118 152 -270 0
-117 -118 -152 270 0
120 121 151 -272 0
120 121 -151 272 0
120 -121 151 272 0
120 -121 -151 -272 0
-120 121 151 272 0
-120 121 -151 -272 0
-120 -121 151 -272 0
-120 -121 -151 272 0
123 124 150 -274 0
123 124 -150 274 0
123 -124 150 274 0
123 -124 -150 -274 0
-123 124 150 274 0
-123 124 -150 -274 0
-123 -124 150 -274 0
-123 -124 -150 274 0
126 127 149 -276 0
126 127 -149 276 0
126 -127 149 276 0
126 -127 -149 -276 0
-126 127 149 276 0
-126 127 -149 -276 0
-126 -127 149 -276 0
-126 -127 -149 276 0
129 130 148 -278 0
129 130 -148 278 0
129 -130 148 278 0
129 -130 -148 -278 0
-129 130 148 278 0
-129 130 -148 -278 0
-129 -130 148 -278 0
-129 -130 -148 278 0
132 133 147 -280 0
132 133 -147 280 0
132 -133 147 280 0
132 -133 -147 -280 0
-132 133 147 280 0
-132 133 -147 -280 0
-132 -133 147 -280 0
-132 -133 -147 280 0
135 136 146 -282 0
135 136 -146 282 0
135 -136 146 282 0
135 -136 -146 -282 0
-135 136 146 282 0
-135 136 -146 -282 0
-135 -136 146 -282 0
-135 -136 -146 282 0
138 139 145 -284 0
138 139 -145 284 0
138 -139 145 284 0
138 -139 -145 -284 0
-138 139 145 284 0
-138 139 -145 -284 0
-138 -139 145 -284 0
-138 -139 -145 284 0
141 142 144 -286 0
141 142 -144 286 0
141 -142 144 286 0
141 -142 -144 -286 0
-141 142 144 286 0
-141 142 -144 -286 0
-141 -142 144 -286 0
-141 -142 -144 286 0
-144 -288 0
144 288 0
-287 -288 289 0
287 -289 0
288 -289 0
285 286 -290 0
285 289 -290 0
-286 -289 290 0
286 289 -290 0
-285 -289 290 0
-285 -286 290 0
283 284 -291 0
283 290 -291 0
-284 -290 291 0
284 290 -291 0
-283 -290 291 0
-283 -284 291 0
281 282 -292 0
281 291 -292 0
-282 -291 292 0
282 291 -292 0
-281 -291 292 0
-281 -282 292 0
279 280 -293 0
279 292 -293 0
-280 -292 293 0
280 292 -293 0
-279 -292 293 0
-279 -280 293 0
277 278 -294 0
277 293 -294 0
-278 -293 294 0
278 293 -294 0
-277 -293 294 0
-277 -278 294 0
275 276 -295 0
275 294 -295 0
-276 -294 295 0
276 294 -295 0
-275 -294 295 0
-275 -276 295 0
273 274 -296 0
273 295 -296 0
-274 -295 296 0
274 295 -296 0
-273 -295 296 0
-273 -274 296 0
271 272 -297 0
271 296 -297 0
-272 -296 297 0
272 296 -297 0
-271 -296 297 0
-271 -272 297 0
269 270 -298 0
269 297 -298 0
-270 -297 298 0
270 297 -298 0
-269 -297 298 0
-269 -270 298 0
267 268 -299 0
267 298 -299 0
-268 -298 299 0
268 298 -299 0
-267 -298 299 0
-267 -268 299 0
265 266 -300 0
265 299 -300 0
-266 -299 300 0
266 299 -300 0
-265 -299 300 0
-265 -266 300 0
263 264 -301 0
263 300 -301 0
-264 -300 301 0
264 300 -301 0
-263 -300 301 0
-263 -264 301 0
261 262 -302 0
261 301 -302 0
-262 -301 302 0
262 301 -302 0
-261 -301 302 0
-261 -262 302 0
259 260 -303 0
259 302 -303 0
-260 -302 303 0
260 302 -303 0
-259 -302 303 0
-259 -260 303 0
257 258 -304 0
257 303 -304 0
-258 -303 304 0
258 303 -304 0
-257 -303 304 0
-257 -258 304 0
255 256 -305 0
255 304 -305 0
-256 -304 305 0
256 304 -305 0
-255 -304 305 0
-255 -256 305 0
253 254 -306 0
253 305 -306 0
-254 -305 306 0
254 305 -306 0
-253 -305 306 0
-253 -254 306 0
251 252 -307 0
251 306 -307 0
-252 -306 307 0
252 306 -307 0
-251 -306 307 0
-251 -252 307 0
249 250 -308 0
249 307 -308 0
-250 -307 308 0
250 307 -308 0
-249 -307 308 0
-249 -250 308 0
247 248 -309 0
247 308 -309 0
-248 -308 309 0
248 308 -309 0
-247 -308 309 0
-247 -248 309 0
245 246 -310 0
245 309 -310 0
-246 -309 310 0
246 309 -310 0
-245 -309 310 0
-245 -246 310 0
243 244 -311 0
243 310 -311 0
-244 -310 311 0
244 310 -311 0
-243 -310 311 0
-243 -244 311 0
241 242 -312 0
241 311 -312 0
-242 -311 312 0
242 311 -312 0
-241 -311 312 0
-241 -242 312 0
239 240 -313 0
239 312 -313 0
-240 -312 313 0
240 312 -313 0
-239 -312 313 0
-239 -240 313 0
237 238 -314 0
237 313 -314 0
-238 -313 314 0
238 313 -314 0
-237 -313 314 0
-237 -238 314 0
235 236 -315 0
235 314 -315 0
-236 -314 315 0
236 314 -315 0
-235 -314 315 0
-235 -236 315 0
233 234 -316 0
233 315 -316 0
-234 -315 316 0
234 315 -316 0
-233 -315 316 0
-233 -234 316 0
231 232 -317 0
231 316 -317 0
-232 -316 317 0
232 316 -317 0
-231 -316 317 0
-231 -232 317 0
229 230 -318 0
229 317 -318 0
-230 -317 318 0
230 317 -318 0
-229 -317 318 0
-229 -230 318 0
227 228 -319 0
227 318 -319 0
-228 -318 319 0
228 318 -319 0
-227 -318 319 0
-227 -228 319 0
225 226 -320 0
225 319 -320 0
-226 -319 320 0
226 319 -320 0
-225 -319 320 0
-225 -226 320 0
223 224 -321 0
223 320 -321 0
-224 -320 321 0
224 320 -321 0
-223 -320 321 0
-223 -224 321 0
221 222 -322 0
221 321 -322 0
-222 -321 322 0
222 321 -322 0
-221 -321 322 0
-221 -222 322 0
219 220 -323 0
219 322 -323 0
-220 -322 323 0
220 322 -323 0
-219 -322 323 0
-219 -220 323 0
217 218 -324 0
217 323 -324 0
-218 -323 324 0
218 323 -324 0
-217 -323 324 0
-217 -218 324 0
215 216 -325 0
215 324 -325 0
-216 -324 325 0
216 324 -325 0
-215 -324 325 0
-215 -216 325 0
213 214 -326 0
213 325 -326 0
-214 -325 326 0
214 325 -326 0
-213 -325 326 0
-213 -214 326 0
211 212 -327 0
211 326 -327 0
-212 -326 327 0
212 326 -327 0
-211 -326 327 0
-211 -212 327 0
209 210 -328 0
209 327 -328 0
-210 -327 328 0
210 327 -328 0
-209 -327 328 0
-209 -210 328 0
207 208 -329 0
207 328 -329 0
-208 -328 329 0
208 328 -329 0
-207 -328 329 0
-207 -208 329 0
205 206 -330 0
205 329 -330 0
-206 -329 330 0
206 329 -330 0
-205 -329 330 0
-205 -206 330 0
203 204 -331 0
203 330 -331 0
-204 -330 331 0
204 330 -331 0
-203 -330 331 0
-203 -204 331 0
201 202 -332 0
201 331 -332 0
-202 -331 332 0
202 331 -332 0
-201 -331 332 0
-201 -202 332 0
199 200 -333 0
199 332 -333 0
-200 -332 333 0
200 332 -333 0
-199 -332 333 0
-199 -200 333 0
197 198 -334 0
197 333 -334 0
-198 -333 334 0
198 333 -334 0
-197 -333 334 0
-197 -198 334 0
195 196 -335 0
195 334 -335 0
-196 -334 335 0
196 334 -335 0
-195 -334 335 0
-195 -196 335 0
193 194 -336 0
193 335 -336 0
-194 -335 336 0
194 335 -336 0
-193 -335 336 0
-193 -194 336 0
1 192 336 -337 0
1 192 -336 337 0
1 -192 336 337 0
1 -192 -336 -337 0
-1 192 336 337 0
-1 192 -336 -337 0
-1 -192 336 -337 0
-1 -192 -336 337 0
337 0
